0
46
35
33
88
23
19
12
16
49
71
54
12
17
0
20
40
28
13
24
24
19
0
14
44
66
15
30
16
125
15
34
90
40
42
64
0
24
0
0
15
16
24
0
23
31
0
0
24
25
36
102
10
19
25
78
23
0
0
18
131
0
20
21
73
20
14
75
40
68
65
9
34
93
0
25
48
36
41
0
9
55
0
19
0
22
41
56
45
0
0
0
45
38
24
9
70
0
0
39
